nP = 2;
nT = 5;
nC1 = 5;
nC2 = 8;
nA = 75;
nD = 3;

arc_from = [1, 1, 1, 1, 1, 2, 2, 2, 2, 2, 3, 3, 3, 3, 3, 4, 4, 4, 4, 4, 5, 5, 5, 5, 5, 6, 6, 6, 6, 6, 7, 7, 7, 7, 7, 8, 8, 8, 8, 8, 8, 8, 8, 9, 9, 9, 9, 9, 9, 9, 9, 10, 10, 10, 10, 10, 10, 10, 10, 11, 11, 11, 11, 11, 11, 11, 11, 12, 12, 12, 12, 12, 12, 12, 12];
arc_to = [3, 4, 5, 6, 7, 3, 4, 5, 6, 7, 8, 9, 10, 11, 12, 8, 9, 10, 11, 12, 8, 9, 10, 11, 12, 8, 9, 10, 11, 12, 8, 9, 10, 11, 12, 13, 14, 15, 16, 17, 18, 19, 20, 13, 14, 15, 16, 17, 18, 19, 20, 13, 14, 15, 16, 17, 18, 19, 20, 13, 14, 15, 16, 17, 18, 19, 20, 13, 14, 15, 16, 17, 18, 19, 20];

supply = [368.32, 368.32, 0.00, 0.00, 0.00, 0.00, 0.00, 0.00, 0.00, 0.00, 0.00, 0.00, 0.00, 0.00, 0.00, 0.00, 0.00, 0.00, 0.00, 0.00];
demand = [0.00, 0.00, 0.00, 0.00, 0.00, 0.00, 0.00, 73.12, 78.32, 75.52, 67.79, 62.53, 79.50, 70.34, 72.59, 76.05, 67.72, 61.24, 62.72, 73.37];

max_capacity = [795, 1414, 3181];

install_cost = array2d(1..nA, 1..nD, [
  20, 24, 32,
  50, 62, 78,
  20, 24, 32,
  50, 62, 78,
  20, 24, 32,
  50, 62, 78,
  20, 24, 32,
  50, 62, 78,
  20, 24, 32,
  50, 62, 78,
  20, 24, 32,
  50, 62, 78,
  20, 24, 32,
  50, 62, 78,
  20, 24, 32,
  50, 62, 78,
  20, 24, 32,
  50, 62, 78,
  20, 24, 32,
  50, 62, 78,
  20, 24, 32,
  50, 62, 78,
  20, 24, 32,
  50, 62, 78,
  20, 24, 32,
  50, 62, 78,
  20, 24, 32,
  50, 62, 78,
  20, 24, 32,
  50, 62, 78,
  20, 24, 32,
  50, 62, 78,
  20, 24, 32,
  50, 62, 78,
  20, 24, 32,
  50, 62, 78,
  20, 24, 32,
  50, 62, 78,
  20, 24, 32,
  50, 62, 78,
  20, 24, 32,
  50, 62, 78,
  20, 24, 32,
  50, 62, 78,
  20, 24, 32,
  50, 62, 78,
  20, 24, 32,
  50, 62, 78,
  20, 24, 32,
  50, 62, 78,
  20, 24, 32,
  50, 62, 78,
  20, 24, 32,
  50, 62, 78,
  20, 24, 32,
  50, 62, 78,
  20, 24, 32,
  50, 62, 78,
  20, 24, 32,
  50, 62, 78,
  20, 24, 32,
  50, 62, 78,
  20, 24, 32,
  50, 62, 78,
  20, 24, 32,
  50, 62, 78,
  20, 24, 32,
  50, 62, 78,
  20, 24, 32,
  50, 62, 78,
  20, 24, 32,
  50, 62, 78,
  20, 24, 32,
  50, 62, 78,
  20, 24, 32
]);

trans_cost = [6.94, 3.59, 8.44, 7.31, 6.53, 7.34, 6.84, 6.18, 5.54, 4.89, 6.43, 6.54, 7.62, 6.30, 4.72, 3.64, 5.81, 5.96, 5.85, 3.70, 7.61, 7.61, 4.77, 7.21, 7.43, 6.06, 4.58, 8.42, 6.57, 5.62, 7.16, 8.43, 5.25, 7.04, 8.91, 4.33, 5.18, 5.10, 5.76, 5.69, 6.45, 4.77, 5.07, 6.45, 6.23, 7.31, 6.61, 7.16, 4.29, 5.42, 8.77, 6.59, 7.12, 6.41, 6.64, 5.65, 11.36, 5.41, 5.94, 2.36, 7.66, 5.17, 5.91, 5.21, 5.79, 5.57, 5.94, 5.92, 5.77, 5.75, 7.96, 7.32, 7.33, 4.90, 7.89];

% Metadata: {'tamaño': 'pequeña', 'numero': 10, 'grupo': 5, 'demanda_total': 920.81, 'suministro_total': 736.64, 'factor_holgura': 0.8, 'num_arcos': 75}
% Total supply: 736.64
% Total demand: 920.81
% Balance factor: 0.80
